NPROCS=0
This instance is clustered!
Gurobi Optimizer version 9.0.0 build v9.0.0rc2 (linux64)
Optimize a model with 20 rows, 101 columns and 200 nonzeros
Model fingerprint: 0x2e77b4b1
Variable types: 1 continuous, 100 integer (100 binary)
Coefficient statistics:
  Matrix range     [1e+00, 1e+00]
  Objective range  [1e+00, 6e+01]
  Bounds range     [1e+00, 1e+00]
  RHS range        [1e+00, 1e+00]
Presolve removed 2 rows and 27 columns
Presolve time: 0.00s
Presolved: 18 rows, 74 columns, 146 nonzeros
Variable types: 1 continuous, 73 integer (73 binary)

Root relaxation: objective 1.073181e+02, 16 iterations, 0.00 seconds
 done with super cut 0

    Nodes    |    Current Node    |     Objective Bounds      |     Work
 Expl Unexpl |  Obj  Depth IntInf | Incumbent    BestBd   Gap | It/Node Time

     0     0  137.33912    0   14          -  137.33912      -     -    0s
 done with super cut 1
 done with super cut 2
H    0     0                     278.0154585  137.33912  50.6%     -    0s
 done with super cut 3
 done with super cut 4
H    0     0                     195.2575456  137.33912  29.7%     -    0s
     0     0  138.87502    0   21  195.25755  138.87502  28.9%     -    0s
 done with super cut 5
 done with super cut 6
H    0     0                     145.6583041  138.87502  4.66%     -    0s
     0     0  139.07809    0   21  145.65830  139.07809  4.52%     -    0s
 done with super cut 7
     0     0  139.95322    0   15  145.65830  139.95322  3.92%     -    0s
 done with super cut 8
 done with super cut 9
H    0     0                     144.1297028  139.95322  2.90%     -    0s
     0     0  141.13135    0   15  144.12970  141.13135  2.08%     -    0s
 done with super cut 10
H    0     0                     143.1636589  141.13135  1.42%     -    0s
     0     0  142.48074    0    2  143.16366  142.48074  0.48%     -    0s
     0     0  142.56460    0    7  143.16366  142.56460  0.42%     -    0s
     0     0     cutoff    0       143.16366  143.16366  0.00%     -    0s

Explored 1 nodes (72 simplex iterations) in 0.57 seconds
Thread count was 12 (of 12 available processors)

Solution count 5: 143.164 144.13 145.658 ... 278.015

Optimal solution found (tolerance 1.00e-04)
Best objective 1.431636588967e+02, best bound 1.431636588967e+02, gap 0.0000%

User-callback calls 113, time in user-callback 0.54 sec
/projects/academic/josewalt/caigao/RRARP_BD/BendersDecomp/ret/model_outs/n_8_e_4_algo_4.out
 =====>>>>> Solution is written to file in <../ret/model_outs> !!!
===>> All Done!
